DATAFILE
data.txt
TRAITS
8
FIELDS_PASSED TO OUTPUT
1
WEIGHT(S)

RESIDUAL_VARIANCE
0.5
# year effect
EFFECT
2 cross alpha
# calving season
EFFECT
3 cross alpha
# toxic fescue
EFFECT
4 cross alpha
# age_group
EFFECT
5 cross alpha
# day length effect
EFFECT
6 cov
# intercept
EFFECT
7 cross alpha
EFFECT
1 cross alpha
RANDOM
animal
OPTIONAL
pe
FILE
ped.txt
FILE_POS
1 2 3 0 0
SNP_FILE
genotypes.txt
PED_DEPTH
3
RANDOM_REGRESSION
data
RR_POSITION
6 7
(CO)VARIANCES
1 0.01
0.01 1
(CO)VARIANCES_PE
1 0.01
0.01 1
# Not filtering on allele frequency
OPTION minfreq 0.0001
# Turn off filtering on call rate in order to use same SNPs across all analyses
OPTION callrate 0
OPTION chrinfo ../../../raw_data/geno_dump/200924_HairShed.850K.chrinfo.txt
OPTION residual
OPTION sol se
OPTION conv_crit 1e-12
OPTION use_yams
OPTION sex_chr 30
OPTION excludeCHR
OPTION maxsnp 1000000
OPTION missing -999
